Cr1_Se2_id_443
1.0
3.778260 0.000000 0.000000
0.000000 3.778260 0.000000
0.000000 0.000000 18.662800
Cr Se 
1 2 
direct
0.000000 0.000000 0.500000 Cr
0.000000 0.500000 0.572760 Se
0.500000 0.000000 0.427240 Se