Fe1_Br2_id_453
1.0
3.984500 0.000000 0.000000
0.000000 3.984500 0.000000
0.000000 0.000000 18.563800
Fe Br 
1 2 
direct
0.000000 0.000000 0.500000 Fe
0.000000 0.500000 0.577180 Br
0.500000 0.000000 0.422820 Br