Cr1_S2_id_1451
1.0
3.588150 0.000000 0.000000
0.000000 3.588150 0.000000
0.000000 0.000000 18.450700
Cr S 
1 2 
direct
0.000000 0.000000 0.500000 Cr
0.000000 0.500000 0.568280 S
0.500000 0.000000 0.431720 S