Fe1_Cl2_id_1463
1.0
3.801180 0.000000 0.000000
0.000000 3.801180 0.000000
0.000000 0.000000 18.309300
Fe Cl 
1 2 
direct
0.000000 0.000000 0.500000 Fe
0.000000 0.500000 0.571620 Cl
0.500000 0.000000 0.428380 Cl