Ni5_Al1_Cl2_id_727
1.0
3.587110 0.000000 0.000000
0.000000 3.587110 0.000000
0.000000 0.000000 22.254700
Ni Al Cl 
5 1 2 
direct
0.029980 0.029980 0.499990 Ni
0.530050 0.030020 0.421410 Ni
0.030020 0.530050 0.421410 Ni
0.530050 0.030020 0.578580 Ni
0.030020 0.530050 0.578580 Ni
0.530000 0.530000 0.499980 Al
0.030190 0.030190 0.352660 Cl
0.030190 0.030190 0.647310 Cl