Ni2_O2_id_3361
1.0
3.857350 0.000000 0.000000
0.000000 3.857350 0.000000
0.000000 0.000000 17.194000
Ni O 
2 2 
direct
0.000000 0.000000 0.500000 Ni
0.500000 0.500000 0.500000 Ni
0.000000 0.500000 0.500010 O
0.500000 0.000000 0.499990 O