Ni5_In1_Br2_id_3770
1.0
3.738270 0.000000 0.000000
0.000000 3.738270 0.000000
0.000000 0.000000 22.254700
Ni In Br 
5 1 2 
direct
0.017290 0.017290 0.500020 Ni
0.517290 0.017300 0.416870 Ni
0.017300 0.517290 0.416870 Ni
0.517290 0.017300 0.583140 Ni
0.017300 0.517290 0.583140 Ni
0.517250 0.517250 0.499980 In
0.017250 0.017250 0.344420 Br
0.017250 0.017250 0.655600 Br