Ni5_In1_Cl2_id_2754
1.0
3.690670 0.000000 0.000000
0.000000 3.690670 0.000000
0.000000 0.000000 22.254700
Ni In Cl 
5 1 2 
direct
0.025680 0.025680 0.499980 Ni
0.525670 0.025790 0.415380 Ni
0.025790 0.525670 0.415380 Ni
0.525670 0.025790 0.584600 Ni
0.025790 0.525670 0.584600 Ni
0.525690 0.525690 0.499960 In
0.025760 0.025760 0.350120 Cl
0.025770 0.025770 0.649830 Cl