Ni5_Ga1_Cl2_id_1739
1.0
3.604190 0.000000 0.000000
0.000000 3.604190 0.000000
0.000000 0.000000 22.254700
Ni Ga Cl 
5 1 2 
direct
0.029770 0.029770 0.500000 Ni
0.529790 0.029810 0.420980 Ni
0.029810 0.529790 0.420980 Ni
0.529790 0.029810 0.579030 Ni
0.029810 0.529790 0.579030 Ni
0.529760 0.529760 0.500000 Ga
0.029880 0.029880 0.352710 Cl
0.029880 0.029880 0.647290 Cl