Ni5_Ga1_Br2_id_2751
1.0
3.657810 0.000000 0.000000
0.000000 3.657810 0.000000
0.000000 0.000000 22.254700
Ni Ga Br 
5 1 2 
direct
0.021180 0.021180 0.499990 Ni
0.521150 0.021210 0.422660 Ni
0.021210 0.521150 0.422660 Ni
0.521150 0.021210 0.577310 Ni
0.021210 0.521150 0.577310 Ni
0.521310 0.521310 0.499990 Ga
0.021180 0.021180 0.347300 Br
0.021180 0.021180 0.652690 Br