Ni5_Al1_Br2_id_1736
1.0
3.635710 0.000000 0.000000
0.000000 3.635710 0.000000
0.000000 0.000000 22.254700
Ni Al Br 
5 1 2 
direct
0.021280 0.021280 0.499990 Ni
0.521450 0.021330 0.422850 Ni
0.021330 0.521450 0.422850 Ni
0.521450 0.021330 0.577120 Ni
0.021330 0.521450 0.577120 Ni
0.521340 0.521340 0.499990 Al
0.021580 0.021580 0.346930 Br
0.021580 0.021580 0.653050 Br