Fe2_I6_id_1760
1.0
6.826700 0.000000 0.000000
-3.413350 5.912100 0.000000
0.000000 0.000000 17.979800
Fe I 
2 6 
direct
0.666670 0.333330 0.499980 Fe
0.333330 0.666670 0.500020 Fe
0.629060 -0.000040 0.416760 I
0.370890 0.370940 0.416760 I
0.000040 0.629110 0.416760 I
0.370870 -0.000090 0.583240 I
0.629040 0.629130 0.583240 I
0.000090 0.370960 0.583240 I