Fe2_Cl6_id_750
1.0
5.909130 0.000000 0.000000
-2.954570 5.117460 0.000000
0.000000 0.000000 17.562600
Fe Cl 
2 6 
direct
0.666670 0.333330 0.500000 Fe
0.333330 0.666670 0.500000 Fe
0.631130 0.000080 0.426750 Cl
0.368950 0.368870 0.426750 Cl
-0.000080 0.631050 0.426750 Cl
0.368950 0.000080 0.573250 Cl
0.631130 0.631050 0.573250 Cl
-0.000080 0.368870 0.573250 Cl