Ru2_Br6_id_1788
1.0
6.509520 0.000000 0.000000
-3.254760 5.637410 0.000000
0.000000 0.000000 17.830100
Ru Br 
2 6 
direct
0.666670 0.333330 0.499990 Ru
0.333330 0.666670 0.500010 Ru
0.635750 0.000010 0.420290 Br
0.364260 0.364250 0.420290 Br
-0.000010 0.635740 0.420290 Br
0.364250 -0.000010 0.579710 Br
0.635740 0.635750 0.579710 Br
0.000010 0.364260 0.579710 Br