Mn2_Cl6_id_1769
1.0
5.900870 0.000000 0.000000
-2.950440 5.110300 0.000000
0.000000 0.000000 17.589500
Mn Cl 
2 6 
direct
0.666670 0.333330 0.499980 Mn
0.333330 0.666670 0.500020 Mn
0.640380 0.000030 0.424980 Cl
0.359650 0.359620 0.424980 Cl
-0.000030 0.640350 0.424980 Cl
0.359620 -0.000030 0.575020 Cl
0.640350 0.640380 0.575020 Cl
0.000030 0.359650 0.575020 Cl