Ru2_I6_id_2802
1.0
7.014190 0.000000 0.000000
-3.507100 6.074470 0.000000
0.000000 0.000000 18.051100
Ru I 
2 6 
direct
0.666670 0.333330 0.500000 Ru
0.333330 0.666670 0.500000 Ru
0.632110 0.000000 0.415370 I
0.367900 0.367890 0.415370 I
0.000000 0.632100 0.415370 I
0.367890 0.000000 0.584630 I
0.632100 0.632110 0.584630 I
0.000000 0.367900 0.584630 I