Ti2_P2_S6_id_4036
1.0
5.948520 0.000000 0.000000
-2.974260 5.153640 0.000000
0.000000 0.000000 18.411600
Ti P S 
2 2 6 
direct
-0.000050 -0.000090 0.500010 Ti
0.333390 0.666770 0.500000 Ti
0.666700 0.333340 0.439760 P
0.666640 0.333340 0.560240 P
0.326890 -0.006440 0.413810 S
1.006510 0.333300 0.413810 S
0.666690 0.673100 0.413810 S
1.006440 0.673110 0.586200 S
0.326840 0.333380 0.586200 S
0.666650 -0.006410 0.586200 S