Br2_Sc2_id_223
1.0
3.605800 0.000000 0.000000
-1.802890 3.123320 0.000000
0.000000 0.000000 18.855800
Br Sc 
2 2 
direct
0.166710 0.833440 0.339860 Br
0.166090 0.832400 0.662020 Br
0.832840 0.165920 0.567340 Sc
0.499950 0.499930 0.434560 Sc