Cr4_N3_O2_id_1191
1.0
2.947100 0.000000 0.000000
-1.473550 2.552260 0.000000
0.000000 0.000000 24.109800
Cr N O 
4 3 2 
direct
0.333330 0.666670 0.449560 Cr
0.666670 0.333330 0.550280 Cr
0.000000 0.000000 0.345880 Cr
0.000000 0.000000 0.653960 Cr
0.000000 0.000000 0.499920 N
0.666670 0.333330 0.401380 N
0.333330 0.666670 0.598460 N
0.666670 0.333330 0.690420 O
0.333330 0.666670 0.309430 O