Cr4_N3_F2_id_2198
1.0
3.008870 0.000000 0.000000
-1.504440 2.605760 0.000000
0.000000 0.000000 23.662000
Cr N F 
4 3 2 
direct
0.333330 0.666670 0.449920 Cr
0.666670 0.333330 0.549820 Cr
0.000000 0.000000 0.357910 Cr
0.000000 0.000000 0.641830 Cr
0.000000 0.000000 0.499870 N
0.666670 0.333330 0.396700 N
0.333330 0.666670 0.603040 N
0.666670 0.333330 0.692810 F
0.333330 0.666670 0.306930 F