Mn4_N3_O2_id_3221
1.0
2.903360 0.000000 0.000000
-1.451680 2.514380 0.000000
0.000000 0.000000 24.104800
Mn N O 
4 3 2 
direct
0.333330 0.666670 0.450880 Mn
0.666670 0.333330 0.549180 Mn
0.000000 0.000000 0.351500 Mn
0.000000 0.000000 0.648550 Mn
0.000000 0.000000 0.500030 N
0.666670 0.333330 0.400340 N
0.333330 0.666670 0.599720 N
0.666670 0.333330 0.688060 O
0.333330 0.666670 0.312000 O