Rh1_I2_id_575
1.0
4.039100 0.000000 0.000000
-2.019550 3.497960 0.000000
0.000000 0.000000 17.985400
Rh I 
1 2 
direct
0.000000 0.000000 0.500000 Rh
0.666670 0.333330 0.582640 I
0.333330 0.666670 0.417360 I