Cr4_C3_O2_id_1188
1.0
2.900790 0.000000 0.000000
-1.450400 2.512160 0.000000
0.000000 0.000000 24.206400
Cr C O 
4 3 2 
direct
0.333330 0.666670 0.450590 Cr
0.666670 0.333330 0.549340 Cr
0.000000 0.000000 0.348510 Cr
0.000000 0.000000 0.651430 Cr
0.000000 0.000000 0.499970 C
0.666670 0.333330 0.401410 C
0.333330 0.666670 0.598530 C
0.666670 0.333330 0.690890 O
0.333330 0.666670 0.309060 O