Cr2_N1_F2_id_688
1.0
3.016000 0.000000 0.000000
-1.508000 2.611930 0.000000
0.000000 0.000000 19.656700
Cr N F 
2 1 2 
direct
0.333330 0.666670 0.441650 Cr
0.666670 0.333330 0.558340 Cr
0.000000 0.000000 0.500000 N
0.333330 0.666670 0.618110 F
0.666670 0.333330 0.381890 F