Fe2_S2_id_3313
1.0
3.393330 0.000000 0.000000
-1.696670 2.938720 0.000000
0.000000 0.000000 20.807300
Fe S 
2 2 
direct
0.333340 0.666670 0.551240 Fe
0.333330 0.666670 0.448860 Fe
0.666690 0.333320 0.408980 S
-0.000020 0.000010 0.591110 S