Mn4_C3_O2_id_3218
1.0
2.920530 0.000000 0.000000
-1.460270 2.529250 0.000000
0.000000 0.000000 24.529700
Mn C O 
4 3 2 
direct
0.333330 0.666670 0.453060 Mn
0.666670 0.333330 0.546920 Mn
0.000000 0.000000 0.353520 Mn
0.000000 0.000000 0.646470 Mn
0.000000 0.000000 0.499990 C
0.666670 0.333330 0.403100 C
0.333330 0.666670 0.596890 C
0.666670 0.333330 0.685300 O
0.333330 0.666670 0.314680 O