Ti2_N1_id_2541
1.0
2.979010 0.000000 0.000000
-1.489510 2.579900 0.000000
0.000000 0.000000 17.283800
Ti N 
2 1 
direct
0.333330 0.666670 0.433730 Ti
0.666670 0.333330 0.566270 Ti
0.000000 0.000000 0.500000 N