Mn4_N3_id_3227
1.0
2.859490 0.000000 0.000000
-1.429750 2.476390 0.000000
0.000000 0.000000 22.885800
Mn N 
4 3 
direct
0.333330 0.666670 0.452510 Mn
0.666670 0.333330 0.547520 Mn
0.000000 0.000000 0.356060 Mn
0.000000 0.000000 0.643960 Mn
0.000000 0.000000 0.500020 N
0.666670 0.333330 0.326440 N
0.333330 0.666670 0.673580 N