Cr4_N3_id_1197
1.0
3.032590 0.000000 0.000000
-1.516300 2.626300 0.000000
0.000000 0.000000 21.442800
Cr N 
4 3 
direct
0.333330 0.666670 0.445500 Cr
0.666670 0.333330 0.554500 Cr
0.000000 0.000000 0.351210 Cr
0.000000 0.000000 0.648790 Cr
0.000000 0.000000 0.500000 N
0.666670 0.333330 0.387490 N
0.333330 0.666670 0.612510 N