Mn4_C3_F2_id_173
1.0
2.923440 0.000000 0.000000
-1.461720 2.531770 0.000000
0.000000 0.000000 23.630000
Mn C F 
4 3 2 
direct
0.333330 0.666670 0.450940 Mn
0.666670 0.333330 0.549120 Mn
0.000000 0.000000 0.352540 Mn
0.000000 0.000000 0.647510 Mn
0.000000 0.000000 0.500030 C
0.666670 0.333330 0.396300 C
0.333330 0.666670 0.603760 C
0.666670 0.333330 0.700880 F
0.333330 0.666670 0.299170 F