Mn2_N1_O2_id_691
1.0
2.878740 0.000000 0.000000
-1.439370 2.493060 0.000000
0.000000 0.000000 19.247600
Mn N O 
2 1 2 
direct
0.333330 0.666670 0.437740 Mn
0.666670 0.333330 0.562260 Mn
0.000000 0.000000 0.500000 N
0.333330 0.666670 0.611880 O
0.666670 0.333330 0.388110 O