S2_Cr2_id_1265
1.0
3.667530 0.000000 0.000000
-1.833760 3.176550 0.000000
0.000000 0.000000 18.855800
S Cr 
2 2 
direct
0.000000 0.000030 0.418480 S
0.333330 0.666640 0.581590 S
0.000010 0.000010 0.538800 Cr
0.333320 0.666650 0.461270 Cr