Cr1_Ga2_Se4_id_1054
1.0
3.918780 0.000000 0.000000
-1.959390 3.393760 0.000000
0.000000 0.000000 39.455200
Cr Ga Se 
1 2 4 
direct
0.000000 0.000000 0.500000 Cr
0.666670 0.333330 0.405280 Ga
0.333330 0.666670 0.594720 Ga
0.666670 0.333330 0.467060 Se
0.333330 0.666670 0.532940 Se
0.666670 0.333330 0.622490 Se
0.333330 0.666670 0.377510 Se