Mn2_C1_F2_id_674
1.0
2.964120 0.000000 0.000000
-1.482060 2.567000 0.000000
0.000000 0.000000 19.211600
Mn C F 
2 1 2 
direct
0.333330 0.666670 0.443780 Mn
0.666670 0.333330 0.556220 Mn
0.000000 0.000000 0.500000 C
0.333330 0.666670 0.621000 F
0.666670 0.333330 0.379000 F