Cl2_Sc2_id_244
1.0
3.469380 0.000000 0.000000
-1.734670 3.004290 0.000000
0.000000 0.000000 18.855800
Cl Sc 
2 2 
direct
0.000140 0.000400 0.344690 Cl
0.333190 0.666290 0.655490 Cl
-0.000180 -0.000240 0.567640 Sc
0.333510 0.666920 0.432490 Sc