Sc4_N3_id_2211
1.0
3.210530 0.000000 0.000000
-1.605270 2.780400 0.000000
0.000000 0.000000 22.553100
Sc N 
4 3 
direct
0.333330 0.666670 0.444550 Sc
0.666670 0.333330 0.555440 Sc
0.000000 0.000000 0.333010 Sc
0.000000 0.000000 0.666980 Sc
0.000000 0.000000 0.500000 N
0.666670 0.333330 0.381400 N
0.333330 0.666670 0.618590 N