Se2_Fe2_id_3314
1.0
3.675950 0.000000 0.000000
-1.837980 3.185020 0.000000
0.000000 0.000000 18.855800
Se Fe 
2 2 
direct
0.000410 0.000500 0.407890 Se
0.332940 0.666200 0.599910 Se
-0.000070 -0.000040 0.538990 Fe
0.333330 0.666750 0.468850 Fe