Ti4_C3_id_186
1.0
3.097450 0.000000 0.000000
-1.548730 2.682470 0.000000
0.000000 0.000000 22.177200
Ti C 
4 3 
direct
0.333330 0.666670 0.446470 Ti
0.666670 0.333330 0.553530 Ti
0.000000 0.000000 0.338950 Ti
0.000000 0.000000 0.661060 Ti
0.000000 0.000000 0.500000 C
0.666670 0.333330 0.384240 C
0.333330 0.666670 0.615760 C