Mn2_N1_F2_id_2711
1.0
3.045040 0.000000 0.000000
-1.522520 2.637080 0.000000
0.000000 0.000000 19.658400
Mn N F 
2 1 2 
direct
0.333330 0.666670 0.441640 Mn
0.666670 0.333330 0.558360 Mn
0.000000 0.000000 0.500000 N
0.333330 0.666670 0.618130 F
0.666670 0.333330 0.381870 F