Fe1_O2_id_456
1.0
2.810190 0.000000 0.000000
-1.405100 2.433700 0.000000
0.000000 0.000000 16.884600
Fe O 
1 2 
direct
0.000000 0.000000 0.500000 Fe
0.666670 0.333330 0.558910 O
0.333330 0.666670 0.441090 O