Cr2_C1_S2_id_2696
1.0
3.051950 0.000000 0.000000
-1.525100 2.643570 0.000000
0.000000 0.000000 19.430500
Cr C S 
2 1 2 
direct
0.666630 0.278520 0.446300 Cr
0.333370 0.611820 0.553720 Cr
1.000000 0.945150 0.500000 C
0.666760 0.278390 0.632620 S
0.333240 0.611940 0.367390 S