F2_Rh2_id_2289
1.0
2.908350 0.000000 0.000000
-1.454180 2.521250 0.000000
0.000000 0.000000 18.855800
F Rh 
2 2 
direct
0.000030 0.001450 0.365950 F
0.333290 0.665200 0.634120 F
0.000120 -0.000520 0.555890 Rh
0.333210 0.667180 0.444180 Rh