Te2_Ti2_id_2408
1.0
4.207600 0.000000 0.000000
-2.103820 3.648630 0.000000
0.000000 0.000000 18.855800
Te Ti 
2 2 
direct
0.000120 0.000160 0.390810 Te
0.333220 0.666510 0.609260 Te
0.000040 0.000260 0.542010 Ti
0.333290 0.666410 0.458060 Ti