Zr4_C3_id_187
1.0
3.340890 0.000000 0.000000
-1.670450 2.893300 0.000000
0.000000 0.000000 22.837200
Zr C 
4 3 
direct
0.333330 0.666670 0.443220 Zr
0.666670 0.333330 0.556780 Zr
0.000000 0.000000 0.329140 Zr
0.000000 0.000000 0.670870 Zr
0.000000 0.000000 0.500000 C
0.666670 0.333330 0.377530 C
0.333330 0.666670 0.622470 C