Te2_Fe2_id_3315
1.0
3.823230 0.000000 0.000000
-1.911630 3.312380 0.000000
0.000000 0.000000 18.855800
Te Fe 
2 2 
direct
0.000020 0.000080 0.394180 Te
0.333310 0.666590 0.605870 Te
0.000010 0.000050 0.533350 Fe
0.333320 0.666620 0.466710 Fe