Fe2_Te2_id_2298
1.0
3.619610 0.000000 0.000000
0.000000 3.619610 0.000000
0.000000 0.000000 18.117900
Fe Te 
2 2 
direct
0.000000 0.000000 0.500000 Fe
0.500000 0.500000 0.500000 Fe
0.000000 0.500000 0.398750 Te
0.500000 0.000000 0.601250 Te