Sb2_Li2_Co2_id_2940
1.0
4.115230 0.000000 0.000000
0.000000 4.115230 0.000000
0.000000 0.000000 18.976000
Sb Li Co 
2 2 2 
direct
0.990980 0.990980 0.422760 Sb
0.491210 0.491210 0.577240 Sb
0.491150 0.491150 0.410130 Li
0.991040 0.991040 0.589870 Li
0.490960 0.991230 0.500000 Co
0.991230 0.490960 0.500000 Co