Sb2_Na2_Co2_id_917
1.0
4.273440 0.000000 0.000000
0.000000 4.273440 0.000000
0.000000 0.000000 18.976000
Sb Na Co 
2 2 2 
direct
0.971230 0.971230 0.428420 Sb
0.470940 0.470940 0.571580 Sb
0.471300 0.471300 0.383080 Na
0.970870 0.970870 0.616920 Na
0.471250 0.970920 0.500000 Co
0.970920 0.471250 0.500000 Co