Co2_S2_id_1260
1.0
3.638850 0.000000 0.000000
0.000000 3.638850 0.000000
0.000000 0.000000 17.667500
Co S 
2 2 
direct
0.000000 0.000000 0.500000 Co
0.500000 0.500000 0.500000 Co
0.000000 0.500000 0.431500 S
0.500000 0.000000 0.568500 S