Mn2_Se2_id_3049
1.0
3.593570 0.000000 0.000000
0.000000 3.593570 0.000000
0.000000 0.000000 33.034800
Mn Se 
2 2 
direct
0.000000 0.500000 0.500000 Mn
0.500000 0.000000 0.500000 Mn
0.500000 0.500000 0.547510 Se
0.000000 0.000000 0.452490 Se