P2_Li2_Mn2_id_2976
1.0
3.599030 0.000000 0.000000
0.000000 3.599030 0.000000
0.000000 0.000000 18.976000
P Li Mn 
2 2 2 
direct
0.004650 0.004650 0.423400 P
0.504540 0.504540 0.576600 P
0.504740 0.504740 0.387020 Li
0.004440 0.004440 0.612980 Li
0.504590 0.004600 0.500000 Mn
0.004600 0.504590 0.500000 Mn