Br2_Fe2_id_2236
1.0
3.631650 0.000000 0.000000
0.000000 3.631650 0.000000
0.000000 0.000000 18.563800
Br Fe 
2 2 
direct
0.000000 0.000000 0.597310 Br
0.500000 0.500000 0.402690 Br
0.500000 0.000000 0.500000 Fe
0.000000 0.500000 0.500000 Fe