Zr2_Cl6_id_2819
1.0
6.263580 0.000000 0.000000
-3.131790 5.424420 0.000000
0.000000 0.000000 18.201200
Zr Cl 
2 6 
direct
0.666670 0.333330 0.500000 Zr
0.333330 0.666670 0.500000 Zr
0.370830 0.000000 0.411680 Cl
0.629170 0.629170 0.411680 Cl
0.000000 0.370830 0.411680 Cl
0.370830 0.000000 0.588320 Cl
0.629170 0.629170 0.588320 Cl
0.000000 0.370830 0.588320 Cl