Ti2_Cl6_id_1797
1.0
6.236200 0.000000 0.000000
-3.118100 5.400710 0.000000
0.000000 0.000000 18.045900
Ti Cl 
2 6 
direct
0.666670 0.333330 0.500000 Ti
0.333330 0.666670 0.500000 Ti
0.400220 0.000000 0.415890 Cl
0.599770 0.599780 0.415890 Cl
0.000000 0.400230 0.415890 Cl
0.400230 0.000000 0.584110 Cl
0.599780 0.599770 0.584110 Cl
0.000000 0.400220 0.584110 Cl