Zr2_Br6_id_1806
1.0
6.572880 0.000000 0.000000
-3.286440 5.692280 0.000000
0.000000 0.000000 18.424600
Zr Br 
2 6 
direct
0.666670 0.333330 0.500010 Zr
0.333330 0.666670 0.499990 Zr
0.363870 -0.000020 0.406770 Br
0.636110 0.636130 0.406770 Br
0.000020 0.363890 0.406770 Br
0.363890 0.000020 0.593230 Br
0.636130 0.636110 0.593230 Br
-0.000020 0.363870 0.593230 Br