Zr2_I6_id_1807
1.0
7.099510 0.000000 0.000000
-3.549760 6.148360 0.000000
0.000000 0.000000 18.707400
Zr I 
2 6 
direct
0.666670 0.333330 0.500000 Zr
0.333330 0.666670 0.500000 Zr
0.362450 0.000000 0.400800 I
0.637540 0.637550 0.400800 I
0.000000 0.362460 0.400800 I
0.362460 0.000000 0.599200 I
0.637540 0.637540 0.599200 I
0.000000 0.362460 0.599200 I