Fe1_I2_id_3494
1.0
3.872230 0.000000 0.000000
-1.936120 3.353450 0.000000
0.000000 0.000000 18.302100
Fe I 
1 2 
direct
0.000000 0.000000 0.500000 Fe
0.666670 0.333330 0.596880 I
0.666670 0.333330 0.403120 I