Fe1_Cl2_id_2476
1.0
3.364600 0.000000 0.000000
-1.682300 2.913830 0.000000
0.000000 0.000000 17.919900
Fe Cl 
1 2 
direct
0.000000 0.000000 0.500000 Fe
0.666670 0.333330 0.585910 Cl
0.666670 0.333330 0.414090 Cl