Cr3_C2_O2_id_2173
1.0
2.889460 0.000000 0.000000
-1.444730 2.502350 0.000000
0.000000 0.000000 22.084700
Cr C O 
3 2 2 
direct
0.000000 0.000000 0.500000 Cr
0.666670 0.333330 0.609770 Cr
0.666670 0.333330 0.390230 Cr
0.333330 0.666670 0.551980 C
0.333330 0.666670 0.448020 C
0.000000 0.000000 0.653610 O
0.000000 0.000000 0.346390 O