Mn3_C2_F2_id_148
1.0
2.930620 0.000000 0.000000
-1.465310 2.537990 0.000000
0.000000 0.000000 22.445100
Mn C F 
3 2 2 
direct
0.000000 0.000000 0.500000 Mn
0.666670 0.333330 0.598230 Mn
0.666670 0.333330 0.401770 Mn
0.333330 0.666670 0.553940 C
0.333330 0.666670 0.446060 C
0.000000 0.000000 0.655020 F
0.000000 0.000000 0.344980 F