Mn3_C2_O2_id_151
1.0
2.882010 0.000000 0.000000
-1.441010 2.495890 0.000000
0.000000 0.000000 22.134500
Mn C O 
3 2 2 
direct
0.000000 0.000000 0.500000 Mn
0.666670 0.333330 0.608330 Mn
0.666670 0.333330 0.391670 Mn
0.333330 0.666670 0.552470 C
0.333330 0.666670 0.447530 C
0.000000 0.000000 0.652430 O
0.000000 0.000000 0.347570 O