Cr3_C2_F2_id_2170
1.0
2.956740 0.000000 0.000000
-1.478370 2.560610 0.000000
0.000000 0.000000 21.627000
Cr C F 
3 2 2 
direct
0.000000 0.000000 0.500000 Cr
0.666670 0.333330 0.605120 Cr
0.666670 0.333330 0.394880 Cr
0.333330 0.666670 0.555680 C
0.333330 0.666670 0.444320 C
0.000000 0.000000 0.662680 F
0.000000 0.000000 0.337320 F