Fe1_Br2_id_2475
1.0
3.571820 0.000000 0.000000
-1.785910 3.093290 0.000000
0.000000 0.000000 18.099500
Fe Br 
1 2 
direct
0.000000 0.000000 0.500000 Fe
0.666670 0.333330 0.590780 Br
0.666670 0.333330 0.409220 Br