Zr3_N2_id_2194
1.0
3.186900 0.000000 0.000000
-1.593450 2.759940 0.000000
0.000000 0.000000 20.342500
Zr N 
3 2 
direct
0.000000 0.000000 0.500000 Zr
0.666670 0.333330 0.631580 Zr
0.666670 0.333330 0.368430 Zr
0.333330 0.666670 0.568640 N
0.333330 0.666670 0.431360 N