Cr2_S4_id_441
1.0
5.808590 0.000000 0.000000
0.000000 5.808640 0.000000
0.000000 0.000000 16.335900
Cr S 
2 4 
direct
0.500000 0.000000 0.500000 Cr
0.000000 0.500000 0.500000 Cr
0.138060 0.138070 0.500000 S
0.638060 0.361930 0.500000 S
0.861940 0.861930 0.500000 S
0.361940 0.638070 0.500000 S